(declare-const c_init Int)
(declare-const x_init Int)
(declare-const c_0 Int)
(declare-const c_1 Int)
(declare-const c_2 Int)
(declare-const c_3 Int)
(declare-const c_4 Int)
(declare-const c_5 Int)
(declare-const c_6 Int)
(declare-const c_7 Int)
(declare-const c_8 Int)
(declare-const c_9 Int)
(declare-const c_10 Int)
(declare-const c_11 Int)
(assert (< c_0 0))
(assert (and (>= (+ (* 1 c_1 ) (* (- 1) c_init ) ) 0) (>= (+ (* (- 1) c_1 ) (* 1 c_init ) ) 0) (>= (+ (* 1 c_2 ) (* (- 1) x_init ) ) 0) (>= (+ (* (- 1) c_2 ) (* 1 x_init ) ) 0) ))
(assert (forall ((c Real) (x Real) ) (=> (and (>= (+ (* (- 1) 1) (* (- 1) c ) ) 0) (>= (+ (* (- 1) c ) (* 1 c_1 ) ) 0) (>= (+ (* 1 c ) (* (- 1) c_1 ) ) 0) (>= (+ (* 1 c_2 ) (* (- 1) x ) ) 0) (>= (+ (* (- 1) c_2 ) (* 1 x ) ) 0) ) (>= (+ (* 1 c c_4 ) (* 1 c_3 ) (* 1 c_5 x ) ) 0) )))
(assert (forall ((c Real) (x Real) ) (=> (and (>= (+ (* (- 1) 1) (* (- 1) c ) ) 0) (>= (+ (* (- 1) c ) (* 1 c_1 ) ) 0) (>= (+ (* 1 c ) (* (- 1) c_1 ) ) 0) (>= (+ (* 1 c_2 ) (* (- 1) x ) ) 0) (>= (+ (* (- 1) c_2 ) (* 1 x ) ) 0) ) (>= (+ (* 1 c c_7 ) (* 1 c_6 ) (* 1 c_8 x ) ) 0) )))
(assert (forall ((c Real) (x Real) ) (=> (and (>= (+ (* (- 1) 1) (* (- 1) c ) ) 0) (>= (+ (* (- 1) c ) (* 1 c_1 ) ) 0) (>= (+ (* 1 c ) (* (- 1) c_1 ) ) 0) (>= (+ (* 1 c_2 ) (* (- 1) x ) ) 0) (>= (+ (* (- 1) c_2 ) (* 1 x ) ) 0) ) (>= (+ (* 1 c c_10 ) (* 1 c_11 x ) (* 1 c_9 ) ) 0) )))
(assert (forall ((c Real) (x Real) ) (=> (and (>= (* 1 c ) 0) (>= (+ (* (- 1) c ) (* 1 c_1 ) ) 0) (>= (+ (* 1 c ) (* (- 1) c_1 ) ) 0) (>= (+ (* 1 c_2 ) (* (- 1) x ) ) 0) (>= (+ (* (- 1) c_2 ) (* 1 x ) ) 0) ) (>= (* 1 c_0 ) 0) )))
(assert (forall ((c Real) (x Real) ) (=> (and (>= (+ (* 1 c ) (* 1 x ) ) 0) (>= (+ (* 1 c c_4 ) (* 1 c_3 ) (* 1 c_5 x ) ) 0) (>= (+ (* 1 c c_7 ) (* 1 c_6 ) (* 1 c_8 x ) ) 0) (>= (+ (* 1 c c_10 ) (* 1 c_11 x ) (* 1 c_9 ) ) 0) ) (>= (+ (* 1 c c_4 ) (* (- 1) c c_5 ) (* 1 c_3 ) (* (- 1) c_4 ) (* 1 c_5 x ) ) 0) )))
(assert (forall ((c Real) (x Real) ) (=> (and (>= (+ (* 1 c ) (* 1 x ) ) 0) (>= (+ (* 1 c c_4 ) (* 1 c_3 ) (* 1 c_5 x ) ) 0) (>= (+ (* 1 c c_7 ) (* 1 c_6 ) (* 1 c_8 x ) ) 0) (>= (+ (* 1 c c_10 ) (* 1 c_11 x ) (* 1 c_9 ) ) 0) ) (>= (+ (* 1 c c_7 ) (* (- 1) c c_8 ) (* 1 c_6 ) (* (- 1) c_7 ) (* 1 c_8 x ) ) 0) )))
(assert (forall ((c Real) (x Real) ) (=> (and (>= (+ (* 1 c ) (* 1 x ) ) 0) (>= (+ (* 1 c c_4 ) (* 1 c_3 ) (* 1 c_5 x ) ) 0) (>= (+ (* 1 c c_7 ) (* 1 c_6 ) (* 1 c_8 x ) ) 0) (>= (+ (* 1 c c_10 ) (* 1 c_11 x ) (* 1 c_9 ) ) 0) ) (>= (+ (* 1 c c_10 ) (* (- 1) c c_11 ) (* (- 1) c_10 ) (* 1 c_11 x ) (* 1 c_9 ) ) 0) )))
(assert (forall ((c Real) (x Real) ) (=> (and (>= (+ (* (- 1) 1) (* (- 1) c ) (* (- 1) x ) ) 0) (>= (+ (* 1 c c_4 ) (* 1 c_3 ) (* 1 c_5 x ) ) 0) (>= (+ (* 1 c c_7 ) (* 1 c_6 ) (* 1 c_8 x ) ) 0) (>= (+ (* 1 c c_10 ) (* 1 c_11 x ) (* 1 c_9 ) ) 0) ) (>= (* 1 c_0 ) 0) )))
(check-sat)
(get-model)

